(set-logic HORN)
(declare-fun state (Int (Array Int Int) (Array Int Int) (Array Int Int) (Array Int Int) Int Int (Array Int Int) (Array Int Int) Int Int Int Int Int Int Int Int Int Int Int Int Int Int Int Int Bool Bool Bool Int (Array Int Int)) Bool)
(assert (forall ((|A| Int) (|A1| (Array Int Int)) (|C| (Array Int Int)) (|D| (Array Int Int)) (|E| (Array Int Int)) (|B1| Int) (|G| Int) (|H| (Array Int Int)) (|I| (Array Int Int)) (|C1| Int) (|K| Int) (|L| Int) (|M| Int) (|N| Int) (|O| Int) (|P| Int) (|Q| Int) (|R| Int) (|S| Int) (|T| Int) (|U| Int) (|V| Int) (|W| Int) (|X| Int) (|Y| Int) (|Z| Bool) (|.loc.3| Bool) (|.loc.4| Bool) (|A1_1| Int) (|A1_0| (Array Int Int)) (|.x.99| Int) (|.x.97| (Array Int Int)) (|.x.95| Int) (|.x.93| (Array Int Int)) (|.x.89| Int) (|.x.91| (Array Int Int)) (|.x.112| Int) (|.x.101| Int) (|.x.92| (Array Int Int)) (|.x.90| (Array Int Int)) (|.x.96| (Array Int Int)) (|.x.102| Int) (|.x.103| Int) (|.x.107| Int) (|.x.109| Int) (|.x.100| Int) (|.x.94| Int) (|.x.98| Int) (|.x.104| Int) (|.x.108| Int) (|.x.111| Int) (|.x.113| Int) (|.x.110| Int) (|.x.105| Int) (|.x.106| Int) (|Z_3| Bool) (|.loc.6| Bool) (|.loc.5| Bool) (|.xtv.1| Int) (|.xtv.2| (Array Int Int))) (=> (and (and (not .loc.3) (not .loc.4)) (and (and (and (and (and (= D E) (not Z)) (= B1 G)) (= C1 K)) (= H I)) (= A1 C))) (state |A| |A1| |C| |D| |E| |B1| |G| |H| |I| |C1| |K| |L| |M| |N| |O| |P| |Q| |R| |S| |T| |U| |V| |W| |X| |Y| |Z| |.loc.3| |.loc.4| |A1_1| |A1_0|))))
(assert (forall ((|A| Int) (|A1| (Array Int Int)) (|C| (Array Int Int)) (|D| (Array Int Int)) (|E| (Array Int Int)) (|B1| Int) (|G| Int) (|H| (Array Int Int)) (|I| (Array Int Int)) (|C1| Int) (|K| Int) (|L| Int) (|M| Int) (|N| Int) (|O| Int) (|P| Int) (|Q| Int) (|R| Int) (|S| Int) (|T| Int) (|U| Int) (|V| Int) (|W| Int) (|X| Int) (|Y| Int) (|Z| Bool) (|.loc.3| Bool) (|.loc.4| Bool) (|A1_1| Int) (|A1_0| (Array Int Int)) (|.x.99| Int) (|.x.97| (Array Int Int)) (|.x.95| Int) (|.x.93| (Array Int Int)) (|.x.89| Int) (|.x.91| (Array Int Int)) (|.x.112| Int) (|.x.101| Int) (|.x.92| (Array Int Int)) (|.x.90| (Array Int Int)) (|.x.96| (Array Int Int)) (|.x.102| Int) (|.x.103| Int) (|.x.107| Int) (|.x.109| Int) (|.x.100| Int) (|.x.94| Int) (|.x.98| Int) (|.x.104| Int) (|.x.108| Int) (|.x.111| Int) (|.x.113| Int) (|.x.110| Int) (|.x.105| Int) (|.x.106| Int) (|Z_3| Bool) (|.loc.6| Bool) (|.loc.5| Bool) (|.xtv.1| Int) (|.xtv.2| (Array Int Int))) (=> (and (state |A| |A1| |C| |D| |E| |B1| |G| |H| |I| |C1| |K| |L| |M| |N| |O| |P| |Q| |R| |S| |T| |U| |V| |W| |X| |Y| |Z| |.loc.3| |.loc.4| |A1_1| |A1_0|) (let ((.def_40 (not .loc.3))) (let ((.def_41 (not .loc.4))) (let ((.def_73 (= A1_1 1))) (let ((.def_118 (and (= (store D .x.112 (store (select D .x.112) .x.101 0)) .x.92) (and (= (store A1_0 .x.112 1) .x.90) (and (= (store H .x.112 4) .x.96) (and (= (select A1_0 .x.112) 0) (and (not (= .x.112 0)) (and (= .x.101 0) (and (= .x.101 .x.102) (and (= .x.102 .x.103) (and (= .x.112 .x.107) (and (= .x.107 .x.109) (and (= A1_1 (select (select .x.92 .x.109) .x.103)) (not (<= .x.89 .x.112))))))))))))))) (let ((.def_121 (= L .x.100))) (let ((.def_130 (or Z (and (= A1_0 (store A1 0 0)) (and (= .x.94 0) (= .x.98 0)))))) (let ((.def_133 (= P .x.104))) (let ((.def_134 (and (and .def_121 .def_130) .def_133))) (let ((.def_136 (= T .x.108))) (let ((.def_139 (= W .x.111))) (let ((.def_142 (= Y .x.113))) (let ((.def_157 (and (and (and (and (= .x.101 .x.108) (= A1_1 (select (select .x.92 .x.111) .x.100))) (= .x.100 .x.108)) (= .x.112 .x.104)) (= .x.104 .x.111)))) (let ((.def_159 (not .def_73))) (let ((.def_163 (= X .x.112))) (let ((.def_166 (= V .x.110))) (let ((.def_168 (= U .x.109))) (let ((.def_170 (= S .x.107))) (let ((.def_173 (= Q .x.105))) (let ((.def_175 (= O .x.103))) (let ((.def_177 (= N .x.102))) (let ((.def_179 (= M .x.101))) (let ((.def_181 (= C1 .x.98))) (let ((.def_183 (= H .x.96))) (let ((.def_185 (= B1 .x.94))) (let ((.def_187 (= A1 .x.90))) (let ((.def_193 (or Z (= .x.92 (store D U (store (select D U) O 1)))))) (let ((.def_197 (= R .x.106))) (let ((.def_229 (= Z Z_3))) (let ((.def_244 (not .loc.6))) (let ((.def_249 (and Z Z_3))) (let ((.def_282 (not .loc.5))) (and (and (= K .x.99) (and (= I .x.97) (and (= G .x.95) (and (= E .x.93) (and (= A .x.89) (= C .x.91)))))) (or (or (and (or (or (and (or (and (or (and .def_40 (and (or Z .def_73) (and (or Z .def_118) (and (and (and .def_134 .def_136) .def_139) .def_142)))) (and (and (and (and (and (and (and (and (and (and (and (and (and (and (or Z .def_157) (and .loc.3 (or Z .def_159))) .def_163) .def_166) .def_168) .def_170) .def_173) .def_175) .def_177) .def_179) .def_181) .def_183) .def_185) .def_187) .def_193)) (and .def_41 (and .def_197 Z_3))) (and (or Z (= .x.92 (store D W (store (select D W) L 0)))) (and (and (or Z_3 (= .x.90 (store A1 X 0))) (and (or Z_3 (= .x.110 .x.106)) (and .def_185 (and .def_183 (and .def_181 (and .def_177 (and .def_175 (and .def_173 (and .def_170 (and .def_168 (and .def_166 (and .def_40 (and .loc.4 (and .def_142 (and .def_139 (and .def_136 (and .def_121 .def_133))))))))))))))))) .def_229))) .loc.6) (and (or .def_118 Z_3) (and (or .def_159 Z_3) (and (and .def_229 (and .def_41 (and .def_40 (and .def_142 (and .def_139 (and .def_136 (and .def_134 .def_197))))))) .def_244)))) (and .def_244 (and .def_41 (and .def_40 (and .def_142 (and .def_139 (and .def_136 (and .def_197 (and .def_133 (and .def_121 (and .def_130 .def_249))))))))))) .loc.5) (and (or .def_157 Z_3) (and (or .def_73 Z_3) (and (and .def_229 (and .def_193 (and .def_187 (and .def_185 (and .def_183 (and .def_181 (and .def_179 (and .def_177 (and .def_175 (and .def_173 (and .def_170 (and .def_168 (and .def_166 (and .def_163 (and .loc.6 (and .def_41 (and .loc.3 .def_197))))))))))))))))) .def_282)))) (and .def_282 (and .def_193 (and .def_187 (and .def_185 (and .def_183 (and .def_181 (and .def_179 (and .def_177 (and .def_175 (and .def_173 (and .def_170 (and .def_168 (and .def_166 (and .def_163 (and .loc.6 (and .def_41 (and .loc.3 (and .def_197 .def_249)))))))))))))))))))))))))))))))))))))))))))))))))))) (state |.x.89| |.x.90| |.x.91| |.x.92| |.x.93| |.x.94| |.x.95| |.x.96| |.x.97| |.x.98| |.x.99| |.x.100| |.x.101| |.x.102| |.x.103| |.x.104| |.x.105| |.x.106| |.x.107| |.x.108| |.x.109| |.x.110| |.x.111| |.x.112| |.x.113| |Z_3| |.loc.5| |.loc.6| |.xtv.1| |.xtv.2|))))
(assert (forall ((|A| Int) (|A1| (Array Int Int)) (|C| (Array Int Int)) (|D| (Array Int Int)) (|E| (Array Int Int)) (|B1| Int) (|G| Int) (|H| (Array Int Int)) (|I| (Array Int Int)) (|C1| Int) (|K| Int) (|L| Int) (|M| Int) (|N| Int) (|O| Int) (|P| Int) (|Q| Int) (|R| Int) (|S| Int) (|T| Int) (|U| Int) (|V| Int) (|W| Int) (|X| Int) (|Y| Int) (|Z| Bool) (|.loc.3| Bool) (|.loc.4| Bool) (|A1_1| Int) (|A1_0| (Array Int Int)) (|.x.99| Int) (|.x.97| (Array Int Int)) (|.x.95| Int) (|.x.93| (Array Int Int)) (|.x.89| Int) (|.x.91| (Array Int Int)) (|.x.112| Int) (|.x.101| Int) (|.x.92| (Array Int Int)) (|.x.90| (Array Int Int)) (|.x.96| (Array Int Int)) (|.x.102| Int) (|.x.103| Int) (|.x.107| Int) (|.x.109| Int) (|.x.100| Int) (|.x.94| Int) (|.x.98| Int) (|.x.104| Int) (|.x.108| Int) (|.x.111| Int) (|.x.113| Int) (|.x.110| Int) (|.x.105| Int) (|.x.106| Int) (|Z_3| Bool) (|.loc.6| Bool) (|.loc.5| Bool) (|.xtv.1| Int) (|.xtv.2| (Array Int Int))) (=> (state |A| |A1| |C| |D| |E| |B1| |G| |H| |I| |C1| |K| |L| |M| |N| |O| |P| |Q| |R| |S| |T| |U| |V| |W| |X| |Y| |Z| |.loc.3| |.loc.4| |A1_1| |A1_0|) (not (and Z (and .loc.3 .loc.4))))))
(check-sat)
